\ Model optimization_model
\ LP format - for model browsing. Use MPS format to capture full model detail.
\ Signature: 0x61ca0e2064f657c5
Minimize
  25.35121187021118 evs_power[0,0] + 25.35121187021118 evs_power[0,1]
   + 34.55225501453606 evs_power[1,0] + 34.55225501453606 evs_power[1,1]
   + 38.27232302115191 evs_power[2,0] + 38.27232302115191 evs_power[2,1]
   + 43.87905340379276 evs_power[3,0] + 43.87905340379276 evs_power[3,1]
   + 47.61541615617174 evs_power[4,0] + 47.61541615617174 evs_power[4,1]
   + 53.09813581802368 evs_power[5,0] + 53.09813581802368 evs_power[5,1]
   + 55.72208033382921 evs_power[6,0] + 55.72208033382921 evs_power[6,1]
   + 59.5003297827458 evs_power[7,0] + 59.5003297827458 evs_power[7,1]
   + 64.04428207392044 evs_power[8,0] + 64.04428207392044 evs_power[8,1]
   + 65.18201067690825 evs_power[9,0] + 65.18201067690825 evs_power[9,1]
   + 67.91537261324117 evs_power[10,0] + 67.91537261324117 evs_power[10,1]
   + 70.34107897129894 evs_power[11,0] + 70.34107897129894 evs_power[11,1]
   + 70.64631448618206 evs_power[12,0] + 70.64631448618206 evs_power[12,1]
   + 71.36688558001079 evs_power[13,0] + 71.36688558001079 evs_power[13,1]
   + 71.6825027501139 evs_power[14,0] + 71.6825027501139 evs_power[14,1]
   + 72.98785149245067 evs_power[15,0] + 72.98785149245067 evs_power[15,1]
   + 73.04276466957819 evs_power[16,0] + 73.04276466957819 evs_power[16,1]
   + 70.63570397255862 evs_power[17,0] + 70.63570397255862 evs_power[17,1]
   + 70.6204153952734 evs_power[18,0] + 70.6204153952734 evs_power[18,1]
   + 69.69238931312488 evs_power[19,0] + 69.69238931312488 evs_power[19,1]
   + 68.08718303712325 evs_power[20,0] + 68.08718303712325 evs_power[20,1]
   + 65.91719075704867 evs_power[21,0] + 65.91719075704867 evs_power[21,1]
   + 63.75004252072697 evs_power[22,0] + 63.75004252072697 evs_power[22,1]
   + 61.26509956298785 evs_power[23,0] + 61.26509956298785 evs_power[23,1]
   + 57.52901359510059 evs_power[24,0] + 57.52901359510059 evs_power[24,1]
   + 57.78158009320612 evs_power[25,0] + 57.78158009320612 evs_power[25,1]
   + 54.46603113868349 evs_power[26,0] + 54.46603113868349 evs_power[26,1]
   + 50.77558180825827 evs_power[27,0] + 50.77558180825827 evs_power[27,1]
   + 47.97000294449054 evs_power[28,0] + 47.97000294449054 evs_power[28,1]
   + 42.34685998247217 evs_power[29,0] + 42.34685998247217 evs_power[29,1]
   + 39.02587358784815 evs_power[30,0] + 39.02587358784815 evs_power[30,1]
   + 35.045369028499 evs_power[31,0] + 35.045369028499 evs_power[31,1]
   + 29.12000627990789 evs_power[32,0] + 29.12000627990789 evs_power[32,1]
   + 24.25565146683959 evs_power[33,0] + 24.25565146683959 evs_power[33,1]
   + 23.32587139869966 evs_power[34,0] + 23.32587139869966 evs_power[34,1]
   + 16.91806271687711 evs_power[35,0] + 16.91806271687711 evs_power[35,1]
   + 12.66564080469183 evs_power[36,0] + 12.66564080469183 evs_power[36,1]
   + 6.92744370432812 evs_power[37,0] + 6.92744370432812 evs_power[37,1]
   + 1.085320236492464 evs_power[38,0] + 1.085320236492464 evs_power[38,1]
   + 0.4655218233696823 evs_power[39,0]
   + 0.4655218233696823 evs_power[39,1] - 6.755352284877972 evs_power[40,0]
   - 6.755352284877972 evs_power[40,1] - 9.510464845147755 evs_power[41,0]
   - 9.510464845147755 evs_power[41,1] - 10.67840313662292 evs_power[42,0]
   - 10.67840313662292 evs_power[42,1] - 16.69168815020237 evs_power[43,0]
   - 16.69168815020237 evs_power[43,1] - 18.25313442534735 evs_power[44,0]
   - 18.25313442534735 evs_power[44,1] - 22.49790641381398 evs_power[45,0]
   - 22.49790641381398 evs_power[45,1] - 25.76977243142862 evs_power[46,0]
   - 25.76977243142862 evs_power[46,1] - 28.14763151085483 evs_power[47,0]
   - 28.14763151085483 evs_power[47,1] - 30.97021303955464 evs_power[48,0]
   - 30.97021303955464 evs_power[48,1] - 34.16581334049344 evs_power[49,0]
   - 34.16581334049344 evs_power[49,1] - 32.97482826983959 evs_power[50,0]
   - 32.97482826983959 evs_power[50,1] - 38.39827776649723 evs_power[51,0]
   - 38.39827776649723 evs_power[51,1] - 40.21081788292658 evs_power[52,0]
   - 40.21081788292658 evs_power[52,1] - 40.54001145929152 evs_power[53,0]
   - 40.54001145929152 evs_power[53,1] - 42.28078592940709 evs_power[54,0]
   - 42.28078592940709 evs_power[54,1] - 42.84403090561261 evs_power[55,0]
   - 42.84403090561261 evs_power[55,1] - 42.64327570241736 evs_power[56,0]
   - 42.64327570241736 evs_power[56,1] - 43.429025728181 evs_power[57,0]
   - 43.429025728181 evs_power[57,1] - 41.92150003610944 evs_power[58,0]
   - 41.92150003610944 evs_power[58,1] - 41.8507355335645 evs_power[59,0]
   - 41.8507355335645 evs_power[59,1] - 42.33844354301647 evs_power[60,0]
   - 42.33844354301647 evs_power[60,1] - 41.34766569174369 evs_power[61,0]
   - 41.34766569174369 evs_power[61,1] - 40.71249216612155 evs_power[62,0]
   - 40.71249216612155 evs_power[62,1] - 39.67045361656349 evs_power[63,0]
   - 39.67045361656349 evs_power[63,1] - 38.48553831376783 evs_power[64,0]
   - 38.48553831376783 evs_power[64,1] - 38.91447690729535 evs_power[65,0]
   - 38.91447690729535 evs_power[65,1] - 32.77784653376634 evs_power[66,0]
   - 32.77784653376634 evs_power[66,1] - 30.82290179408568 evs_power[67,0]
   - 30.82290179408568 evs_power[67,1] - 30.32603129415293 evs_power[68,0]
   - 30.32603129415293 evs_power[68,1] - 28.14998610467396 evs_power[69,0]
   - 28.14998610467396 evs_power[69,1] - 24.22265616323463 evs_power[70,0]
   - 24.22265616323463 evs_power[70,1] - 23.37256090304893 evs_power[71,0]
   - 23.37256090304893 evs_power[71,1] - 19.88201736269665 evs_power[72,0]
   - 19.88201736269665 evs_power[72,1] - 15.26223837414056 evs_power[73,0]
   - 15.26223837414056 evs_power[73,1] - 11.86707017056697 evs_power[74,0]
   - 11.86707017056697 evs_power[74,1] - 9.408836855789914 evs_power[75,0]
   - 9.408836855789914 evs_power[75,1] - 6.934491143768886 evs_power[76,0]
   - 6.934491143768886 evs_power[76,1] - 8.043979144345629 evs_power[77,0]
   - 8.043979144345629 evs_power[77,1] - 3.389648218746797 evs_power[78,0]
   - 3.389648218746797 evs_power[78,1] + 0.4327547791714522 evs_power[79,0]
   + 0.4327547791714522 evs_power[79,1]
   + 0.1148513137184819 evs_power[80,0]
   + 0.1148513137184819 evs_power[80,1] + 5.152730589365424 evs_power[81,0]
   + 5.152730589365424 evs_power[81,1] + 7.394895153001405 evs_power[82,0]
   + 7.394895153001405 evs_power[82,1] + 8.204464294258443 evs_power[83,0]
   + 8.204464294258443 evs_power[83,1] + 10.38066346919621 evs_power[84,0]
   + 10.38066346919621 evs_power[84,1] + 10.76176833374963 evs_power[85,0]
   + 10.76176833374963 evs_power[85,1] + 13.8782846302206 evs_power[86,0]
   + 13.8782846302206 evs_power[86,1] + 14.25880086386103 evs_power[87,0]
   + 14.25880086386103 evs_power[87,1] + 12.98363455078447 evs_power[88,0]
   + 12.98363455078447 evs_power[88,1] + 17.93659394698134 evs_power[89,0]
   + 17.93659394698134 evs_power[89,1] + 17.38939836754521 evs_power[90,0]
   + 17.38939836754521 evs_power[90,1] + 18.43776907947958 evs_power[91,0]
   + 18.43776907947958 evs_power[91,1] + 17.73384158758888 evs_power[92,0]
   + 17.73384158758888 evs_power[92,1] + 18.47095009785963 evs_power[93,0]
   + 18.47095009785963 evs_power[93,1] + 19.65097308650612 evs_power[94,0]
   + 19.65097308650612 evs_power[94,1] + 20.08786871228561 evs_power[95,0]
   + 20.08786871228561 evs_power[95,1] + 38609.42016129998 Constant + [
   2 evs_power[0,0] ^2 + 4 evs_power[0,0] * evs_power[0,1]
   + 2 evs_power[0,1] ^2 + 2 evs_power[1,0] ^2
   + 4 evs_power[1,0] * evs_power[1,1] + 2 evs_power[1,1] ^2
   + 2 evs_power[2,0] ^2 + 4 evs_power[2,0] * evs_power[2,1]
   + 2 evs_power[2,1] ^2 + 2 evs_power[3,0] ^2
   + 4 evs_power[3,0] * evs_power[3,1] + 2 evs_power[3,1] ^2
   + 2 evs_power[4,0] ^2 + 4 evs_power[4,0] * evs_power[4,1]
   + 2 evs_power[4,1] ^2 + 2 evs_power[5,0] ^2
   + 4 evs_power[5,0] * evs_power[5,1] + 2 evs_power[5,1] ^2
   + 2 evs_power[6,0] ^2 + 4 evs_power[6,0] * evs_power[6,1]
   + 2 evs_power[6,1] ^2 + 2 evs_power[7,0] ^2
   + 4 evs_power[7,0] * evs_power[7,1] + 2 evs_power[7,1] ^2
   + 2 evs_power[8,0] ^2 + 4 evs_power[8,0] * evs_power[8,1]
   + 2 evs_power[8,1] ^2 + 2 evs_power[9,0] ^2
   + 4 evs_power[9,0] * evs_power[9,1] + 2 evs_power[9,1] ^2
   + 2 evs_power[10,0] ^2 + 4 evs_power[10,0] * evs_power[10,1]
   + 2 evs_power[10,1] ^2 + 2 evs_power[11,0] ^2
   + 4 evs_power[11,0] * evs_power[11,1] + 2 evs_power[11,1] ^2
   + 2 evs_power[12,0] ^2 + 4 evs_power[12,0] * evs_power[12,1]
   + 2 evs_power[12,1] ^2 + 2 evs_power[13,0] ^2
   + 4 evs_power[13,0] * evs_power[13,1] + 2 evs_power[13,1] ^2
   + 2 evs_power[14,0] ^2 + 4 evs_power[14,0] * evs_power[14,1]
   + 2 evs_power[14,1] ^2 + 2 evs_power[15,0] ^2
   + 4 evs_power[15,0] * evs_power[15,1] + 2 evs_power[15,1] ^2
   + 2 evs_power[16,0] ^2 + 4 evs_power[16,0] * evs_power[16,1]
   + 2 evs_power[16,1] ^2 + 2 evs_power[17,0] ^2
   + 4 evs_power[17,0] * evs_power[17,1] + 2 evs_power[17,1] ^2
   + 2 evs_power[18,0] ^2 + 4 evs_power[18,0] * evs_power[18,1]
   + 2 evs_power[18,1] ^2 + 2 evs_power[19,0] ^2
   + 4 evs_power[19,0] * evs_power[19,1] + 2 evs_power[19,1] ^2
   + 2 evs_power[20,0] ^2 + 4 evs_power[20,0] * evs_power[20,1]
   + 2 evs_power[20,1] ^2 + 2 evs_power[21,0] ^2
   + 4 evs_power[21,0] * evs_power[21,1] + 2 evs_power[21,1] ^2
   + 2 evs_power[22,0] ^2 + 4 evs_power[22,0] * evs_power[22,1]
   + 2 evs_power[22,1] ^2 + 2 evs_power[23,0] ^2
   + 4 evs_power[23,0] * evs_power[23,1] + 2 evs_power[23,1] ^2
   + 2 evs_power[24,0] ^2 + 4 evs_power[24,0] * evs_power[24,1]
   + 2 evs_power[24,1] ^2 + 2 evs_power[25,0] ^2
   + 4 evs_power[25,0] * evs_power[25,1] + 2 evs_power[25,1] ^2
   + 2 evs_power[26,0] ^2 + 4 evs_power[26,0] * evs_power[26,1]
   + 2 evs_power[26,1] ^2 + 2 evs_power[27,0] ^2
   + 4 evs_power[27,0] * evs_power[27,1] + 2 evs_power[27,1] ^2
   + 2 evs_power[28,0] ^2 + 4 evs_power[28,0] * evs_power[28,1]
   + 2 evs_power[28,1] ^2 + 2 evs_power[29,0] ^2
   + 4 evs_power[29,0] * evs_power[29,1] + 2 evs_power[29,1] ^2
   + 2 evs_power[30,0] ^2 + 4 evs_power[30,0] * evs_power[30,1]
   + 2 evs_power[30,1] ^2 + 2 evs_power[31,0] ^2
   + 4 evs_power[31,0] * evs_power[31,1] + 2 evs_power[31,1] ^2
   + 2 evs_power[32,0] ^2 + 4 evs_power[32,0] * evs_power[32,1]
   + 2 evs_power[32,1] ^2 + 2 evs_power[33,0] ^2
   + 4 evs_power[33,0] * evs_power[33,1] + 2 evs_power[33,1] ^2
   + 2 evs_power[34,0] ^2 + 4 evs_power[34,0] * evs_power[34,1]
   + 2 evs_power[34,1] ^2 + 2 evs_power[35,0] ^2
   + 4 evs_power[35,0] * evs_power[35,1] + 2 evs_power[35,1] ^2
   + 2 evs_power[36,0] ^2 + 4 evs_power[36,0] * evs_power[36,1]
   + 2 evs_power[36,1] ^2 + 2 evs_power[37,0] ^2
   + 4 evs_power[37,0] * evs_power[37,1] + 2 evs_power[37,1] ^2
   + 2 evs_power[38,0] ^2 + 4 evs_power[38,0] * evs_power[38,1]
   + 2 evs_power[38,1] ^2 + 2 evs_power[39,0] ^2
   + 4 evs_power[39,0] * evs_power[39,1] + 2 evs_power[39,1] ^2
   + 2 evs_power[40,0] ^2 + 4 evs_power[40,0] * evs_power[40,1]
   + 2 evs_power[40,1] ^2 + 2 evs_power[41,0] ^2
   + 4 evs_power[41,0] * evs_power[41,1] + 2 evs_power[41,1] ^2
   + 2 evs_power[42,0] ^2 + 4 evs_power[42,0] * evs_power[42,1]
   + 2 evs_power[42,1] ^2 + 2 evs_power[43,0] ^2
   + 4 evs_power[43,0] * evs_power[43,1] + 2 evs_power[43,1] ^2
   + 2 evs_power[44,0] ^2 + 4 evs_power[44,0] * evs_power[44,1]
   + 2 evs_power[44,1] ^2 + 2 evs_power[45,0] ^2
   + 4 evs_power[45,0] * evs_power[45,1] + 2 evs_power[45,1] ^2
   + 2 evs_power[46,0] ^2 + 4 evs_power[46,0] * evs_power[46,1]
   + 2 evs_power[46,1] ^2 + 2 evs_power[47,0] ^2
   + 4 evs_power[47,0] * evs_power[47,1] + 2 evs_power[47,1] ^2
   + 2 evs_power[48,0] ^2 + 4 evs_power[48,0] * evs_power[48,1]
   + 2 evs_power[48,1] ^2 + 2 evs_power[49,0] ^2
   + 4 evs_power[49,0] * evs_power[49,1] + 2 evs_power[49,1] ^2
   + 2 evs_power[50,0] ^2 + 4 evs_power[50,0] * evs_power[50,1]
   + 2 evs_power[50,1] ^2 + 2 evs_power[51,0] ^2
   + 4 evs_power[51,0] * evs_power[51,1] + 2 evs_power[51,1] ^2
   + 2 evs_power[52,0] ^2 + 4 evs_power[52,0] * evs_power[52,1]
   + 2 evs_power[52,1] ^2 + 2 evs_power[53,0] ^2
   + 4 evs_power[53,0] * evs_power[53,1] + 2 evs_power[53,1] ^2
   + 2 evs_power[54,0] ^2 + 4 evs_power[54,0] * evs_power[54,1]
   + 2 evs_power[54,1] ^2 + 2 evs_power[55,0] ^2
   + 4 evs_power[55,0] * evs_power[55,1] + 2 evs_power[55,1] ^2
   + 2 evs_power[56,0] ^2 + 4 evs_power[56,0] * evs_power[56,1]
   + 2 evs_power[56,1] ^2 + 2 evs_power[57,0] ^2
   + 4 evs_power[57,0] * evs_power[57,1] + 2 evs_power[57,1] ^2
   + 2 evs_power[58,0] ^2 + 4 evs_power[58,0] * evs_power[58,1]
   + 2 evs_power[58,1] ^2 + 2 evs_power[59,0] ^2
   + 4 evs_power[59,0] * evs_power[59,1] + 2 evs_power[59,1] ^2
   + 2 evs_power[60,0] ^2 + 4 evs_power[60,0] * evs_power[60,1]
   + 2 evs_power[60,1] ^2 + 2 evs_power[61,0] ^2
   + 4 evs_power[61,0] * evs_power[61,1] + 2 evs_power[61,1] ^2
   + 2 evs_power[62,0] ^2 + 4 evs_power[62,0] * evs_power[62,1]
   + 2 evs_power[62,1] ^2 + 2 evs_power[63,0] ^2
   + 4 evs_power[63,0] * evs_power[63,1] + 2 evs_power[63,1] ^2
   + 2 evs_power[64,0] ^2 + 4 evs_power[64,0] * evs_power[64,1]
   + 2 evs_power[64,1] ^2 + 2 evs_power[65,0] ^2
   + 4 evs_power[65,0] * evs_power[65,1] + 2 evs_power[65,1] ^2
   + 2 evs_power[66,0] ^2 + 4 evs_power[66,0] * evs_power[66,1]
   + 2 evs_power[66,1] ^2 + 2 evs_power[67,0] ^2
   + 4 evs_power[67,0] * evs_power[67,1] + 2 evs_power[67,1] ^2
   + 2 evs_power[68,0] ^2 + 4 evs_power[68,0] * evs_power[68,1]
   + 2 evs_power[68,1] ^2 + 2 evs_power[69,0] ^2
   + 4 evs_power[69,0] * evs_power[69,1] + 2 evs_power[69,1] ^2
   + 2 evs_power[70,0] ^2 + 4 evs_power[70,0] * evs_power[70,1]
   + 2 evs_power[70,1] ^2 + 2 evs_power[71,0] ^2
   + 4 evs_power[71,0] * evs_power[71,1] + 2 evs_power[71,1] ^2
   + 2 evs_power[72,0] ^2 + 4 evs_power[72,0] * evs_power[72,1]
   + 2 evs_power[72,1] ^2 + 2 evs_power[73,0] ^2
   + 4 evs_power[73,0] * evs_power[73,1] + 2 evs_power[73,1] ^2
   + 2 evs_power[74,0] ^2 + 4 evs_power[74,0] * evs_power[74,1]
   + 2 evs_power[74,1] ^2 + 2 evs_power[75,0] ^2
   + 4 evs_power[75,0] * evs_power[75,1] + 2 evs_power[75,1] ^2
   + 2 evs_power[76,0] ^2 + 4 evs_power[76,0] * evs_power[76,1]
   + 2 evs_power[76,1] ^2 + 2 evs_power[77,0] ^2
   + 4 evs_power[77,0] * evs_power[77,1] + 2 evs_power[77,1] ^2
   + 2 evs_power[78,0] ^2 + 4 evs_power[78,0] * evs_power[78,1]
   + 2 evs_power[78,1] ^2 + 2 evs_power[79,0] ^2
   + 4 evs_power[79,0] * evs_power[79,1] + 2 evs_power[79,1] ^2
   + 2 evs_power[80,0] ^2 + 4 evs_power[80,0] * evs_power[80,1]
   + 2 evs_power[80,1] ^2 + 2 evs_power[81,0] ^2
   + 4 evs_power[81,0] * evs_power[81,1] + 2 evs_power[81,1] ^2
   + 2 evs_power[82,0] ^2 + 4 evs_power[82,0] * evs_power[82,1]
   + 2 evs_power[82,1] ^2 + 2 evs_power[83,0] ^2
   + 4 evs_power[83,0] * evs_power[83,1] + 2 evs_power[83,1] ^2
   + 2 evs_power[84,0] ^2 + 4 evs_power[84,0] * evs_power[84,1]
   + 2 evs_power[84,1] ^2 + 2 evs_power[85,0] ^2
   + 4 evs_power[85,0] * evs_power[85,1] + 2 evs_power[85,1] ^2
   + 2 evs_power[86,0] ^2 + 4 evs_power[86,0] * evs_power[86,1]
   + 2 evs_power[86,1] ^2 + 2 evs_power[87,0] ^2
   + 4 evs_power[87,0] * evs_power[87,1] + 2 evs_power[87,1] ^2
   + 2 evs_power[88,0] ^2 + 4 evs_power[88,0] * evs_power[88,1]
   + 2 evs_power[88,1] ^2 + 2 evs_power[89,0] ^2
   + 4 evs_power[89,0] * evs_power[89,1] + 2 evs_power[89,1] ^2
   + 2 evs_power[90,0] ^2 + 4 evs_power[90,0] * evs_power[90,1]
   + 2 evs_power[90,1] ^2 + 2 evs_power[91,0] ^2
   + 4 evs_power[91,0] * evs_power[91,1] + 2 evs_power[91,1] ^2
   + 2 evs_power[92,0] ^2 + 4 evs_power[92,0] * evs_power[92,1]
   + 2 evs_power[92,1] ^2 + 2 evs_power[93,0] ^2
   + 4 evs_power[93,0] * evs_power[93,1] + 2 evs_power[93,1] ^2
   + 2 evs_power[94,0] ^2 + 4 evs_power[94,0] * evs_power[94,1]
   + 2 evs_power[94,1] ^2 + 2 evs_power[95,0] ^2
   + 4 evs_power[95,0] * evs_power[95,1] + 2 evs_power[95,1] ^2 ] / 2 
Subject To
 MinBatteryCapacity_LB_time0_counter0: 0.25 evs_power[0,0] >= -31.18
 MaxBatteryCapacity_UB_time0_counter0: 0.25 evs_power[0,0] <= 8.82
 MinBatteryCapacity_LB_time1_counter0: 0.25 evs_power[0,0]
   + 0.25 evs_power[1,0] >= -31.18
 MaxBatteryCapacity_UB_time1_counter0: 0.25 evs_power[0,0]
   + 0.25 evs_power[1,0] <= 8.82
 MinBatteryCapacity_LB_time2_counter0: 0.25 evs_power[0,0]
   + 0.25 evs_power[1,0] + 0.25 evs_power[2,0] >= -31.18
 MaxBatteryCapacity_UB_time2_counter0: 0.25 evs_power[0,0]
   + 0.25 evs_power[1,0] + 0.25 evs_power[2,0] <= 8.82
 DesiredCapacity_counter0: 0.25 evs_power[0,0] + 0.25 evs_power[1,0]
   + 0.25 evs_power[2,0] >= -11.18
 power==0_EV_Departed_time3_counter0: evs_power[3,0] = 0
 power==0_EV_Departed_time4_counter0: evs_power[4,0] = 0
 power==0_EV_Departed_time5_counter0: evs_power[5,0] = 0
 power==0_EV_Departed_time6_counter0: evs_power[6,0] = 0
 power==0_EV_Departed_time7_counter0: evs_power[7,0] = 0
 power==0_EV_Departed_time8_counter0: evs_power[8,0] = 0
 power==0_EV_Departed_time9_counter0: evs_power[9,0] = 0
 power==0_EV_Departed_time10_counter0: evs_power[10,0] = 0
 power==0_EV_Departed_time11_counter0: evs_power[11,0] = 0
 power==0_EV_Departed_time12_counter0: evs_power[12,0] = 0
 power==0_EV_Departed_time13_counter0: evs_power[13,0] = 0
 power==0_EV_Departed_time14_counter0: evs_power[14,0] = 0
 power==0_EV_Departed_time15_counter0: evs_power[15,0] = 0
 power==0_EV_Departed_time16_counter0: evs_power[16,0] = 0
 power==0_EV_Departed_time17_counter0: evs_power[17,0] = 0
 power==0_EV_Departed_time18_counter0: evs_power[18,0] = 0
 power==0_EV_Departed_time19_counter0: evs_power[19,0] = 0
 power==0_EV_Departed_time20_counter0: evs_power[20,0] = 0
 power==0_EV_Departed_time21_counter0: evs_power[21,0] = 0
 power==0_EV_Departed_time22_counter0: evs_power[22,0] = 0
 power==0_EV_Departed_time23_counter0: evs_power[23,0] = 0
 power==0_EV_Departed_time24_counter0: evs_power[24,0] = 0
 power==0_EV_Departed_time25_counter0: evs_power[25,0] = 0
 power==0_EV_Departed_time26_counter0: evs_power[26,0] = 0
 power==0_EV_Departed_time27_counter0: evs_power[27,0] = 0
 power==0_EV_Departed_time28_counter0: evs_power[28,0] = 0
 power==0_EV_Departed_time29_counter0: evs_power[29,0] = 0
 power==0_EV_Departed_time30_counter0: evs_power[30,0] = 0
 power==0_EV_Departed_time31_counter0: evs_power[31,0] = 0
 power==0_EV_Departed_time32_counter0: evs_power[32,0] = 0
 power==0_EV_Departed_time33_counter0: evs_power[33,0] = 0
 power==0_EV_Departed_time34_counter0: evs_power[34,0] = 0
 power==0_EV_Departed_time35_counter0: evs_power[35,0] = 0
 power==0_EV_Departed_time36_counter0: evs_power[36,0] = 0
 power==0_EV_Departed_time37_counter0: evs_power[37,0] = 0
 power==0_EV_Departed_time38_counter0: evs_power[38,0] = 0
 power==0_EV_Departed_time39_counter0: evs_power[39,0] = 0
 power==0_EV_Departed_time40_counter0: evs_power[40,0] = 0
 power==0_EV_Departed_time41_counter0: evs_power[41,0] = 0
 power==0_EV_Departed_time42_counter0: evs_power[42,0] = 0
 power==0_EV_Departed_time43_counter0: evs_power[43,0] = 0
 power==0_EV_Departed_time44_counter0: evs_power[44,0] = 0
 power==0_EV_Departed_time45_counter0: evs_power[45,0] = 0
 power==0_EV_Departed_time46_counter0: evs_power[46,0] = 0
 power==0_EV_Departed_time47_counter0: evs_power[47,0] = 0
 power==0_EV_Departed_time48_counter0: evs_power[48,0] = 0
 power==0_EV_Departed_time49_counter0: evs_power[49,0] = 0
 power==0_EV_Departed_time50_counter0: evs_power[50,0] = 0
 power==0_EV_Departed_time51_counter0: evs_power[51,0] = 0
 power==0_EV_Departed_time52_counter0: evs_power[52,0] = 0
 power==0_EV_Departed_time53_counter0: evs_power[53,0] = 0
 power==0_EV_Departed_time54_counter0: evs_power[54,0] = 0
 power==0_EV_Departed_time55_counter0: evs_power[55,0] = 0
 power==0_EV_Departed_time56_counter0: evs_power[56,0] = 0
 power==0_EV_Departed_time57_counter0: evs_power[57,0] = 0
 power==0_EV_Departed_time58_counter0: evs_power[58,0] = 0
 power==0_EV_Departed_time59_counter0: evs_power[59,0] = 0
 power==0_EV_Departed_time60_counter0: evs_power[60,0] = 0
 power==0_EV_Departed_time61_counter0: evs_power[61,0] = 0
 power==0_EV_Departed_time62_counter0: evs_power[62,0] = 0
 power==0_EV_Departed_time63_counter0: evs_power[63,0] = 0
 power==0_EV_Departed_time64_counter0: evs_power[64,0] = 0
 power==0_EV_Departed_time65_counter0: evs_power[65,0] = 0
 power==0_EV_Departed_time66_counter0: evs_power[66,0] = 0
 power==0_EV_Departed_time67_counter0: evs_power[67,0] = 0
 power==0_EV_Departed_time68_counter0: evs_power[68,0] = 0
 power==0_EV_Departed_time69_counter0: evs_power[69,0] = 0
 power==0_EV_Departed_time70_counter0: evs_power[70,0] = 0
 power==0_EV_Departed_time71_counter0: evs_power[71,0] = 0
 power==0_EV_Departed_time72_counter0: evs_power[72,0] = 0
 power==0_EV_Departed_time73_counter0: evs_power[73,0] = 0
 power==0_EV_Departed_time74_counter0: evs_power[74,0] = 0
 power==0_EV_Departed_time75_counter0: evs_power[75,0] = 0
 power==0_EV_Departed_time76_counter0: evs_power[76,0] = 0
 power==0_EV_Departed_time77_counter0: evs_power[77,0] = 0
 power==0_EV_Departed_time78_counter0: evs_power[78,0] = 0
 power==0_EV_Departed_time79_counter0: evs_power[79,0] = 0
 power==0_EV_Departed_time80_counter0: evs_power[80,0] = 0
 power==0_EV_Departed_time81_counter0: evs_power[81,0] = 0
 power==0_EV_Departed_time82_counter0: evs_power[82,0] = 0
 power==0_EV_Departed_time83_counter0: evs_power[83,0] = 0
 power==0_EV_Departed_time84_counter0: evs_power[84,0] = 0
 power==0_EV_Departed_time85_counter0: evs_power[85,0] = 0
 power==0_EV_Departed_time86_counter0: evs_power[86,0] = 0
 power==0_EV_Departed_time87_counter0: evs_power[87,0] = 0
 power==0_EV_Departed_time88_counter0: evs_power[88,0] = 0
 power==0_EV_Departed_time89_counter0: evs_power[89,0] = 0
 power==0_EV_Departed_time90_counter0: evs_power[90,0] = 0
 power==0_EV_Departed_time91_counter0: evs_power[91,0] = 0
 power==0_EV_Departed_time92_counter0: evs_power[92,0] = 0
 power==0_EV_Departed_time93_counter0: evs_power[93,0] = 0
 power==0_EV_Departed_time94_counter0: evs_power[94,0] = 0
 power==0_EV_Departed_time95_counter0: evs_power[95,0] = 0
 MinBatteryCapacity_LB_time0_counter1: 0.25 evs_power[0,1] >= -26.19
 MaxBatteryCapacity_UB_time0_counter1: 0.25 evs_power[0,1] <= 13.81
 DesiredCapacity_counter1: 0.25 evs_power[0,1] >= -6.19
 power==0_EV_Departed_time1_counter1: evs_power[1,1] = 0
 power==0_EV_Departed_time2_counter1: evs_power[2,1] = 0
 power==0_EV_Departed_time3_counter1: evs_power[3,1] = 0
 power==0_EV_Departed_time4_counter1: evs_power[4,1] = 0
 power==0_EV_Departed_time5_counter1: evs_power[5,1] = 0
 power==0_EV_Departed_time6_counter1: evs_power[6,1] = 0
 power==0_EV_Departed_time7_counter1: evs_power[7,1] = 0
 power==0_EV_Departed_time8_counter1: evs_power[8,1] = 0
 power==0_EV_Departed_time9_counter1: evs_power[9,1] = 0
 power==0_EV_Departed_time10_counter1: evs_power[10,1] = 0
 power==0_EV_Departed_time11_counter1: evs_power[11,1] = 0
 power==0_EV_Departed_time12_counter1: evs_power[12,1] = 0
 power==0_EV_Departed_time13_counter1: evs_power[13,1] = 0
 power==0_EV_Departed_time14_counter1: evs_power[14,1] = 0
 power==0_EV_Departed_time15_counter1: evs_power[15,1] = 0
 power==0_EV_Departed_time16_counter1: evs_power[16,1] = 0
 power==0_EV_Departed_time17_counter1: evs_power[17,1] = 0
 power==0_EV_Departed_time18_counter1: evs_power[18,1] = 0
 power==0_EV_Departed_time19_counter1: evs_power[19,1] = 0
 power==0_EV_Departed_time20_counter1: evs_power[20,1] = 0
 power==0_EV_Departed_time21_counter1: evs_power[21,1] = 0
 power==0_EV_Departed_time22_counter1: evs_power[22,1] = 0
 power==0_EV_Departed_time23_counter1: evs_power[23,1] = 0
 power==0_EV_Departed_time24_counter1: evs_power[24,1] = 0
 power==0_EV_Departed_time25_counter1: evs_power[25,1] = 0
 power==0_EV_Departed_time26_counter1: evs_power[26,1] = 0
 power==0_EV_Departed_time27_counter1: evs_power[27,1] = 0
 power==0_EV_Departed_time28_counter1: evs_power[28,1] = 0
 power==0_EV_Departed_time29_counter1: evs_power[29,1] = 0
 power==0_EV_Departed_time30_counter1: evs_power[30,1] = 0
 power==0_EV_Departed_time31_counter1: evs_power[31,1] = 0
 power==0_EV_Departed_time32_counter1: evs_power[32,1] = 0
 power==0_EV_Departed_time33_counter1: evs_power[33,1] = 0
 power==0_EV_Departed_time34_counter1: evs_power[34,1] = 0
 power==0_EV_Departed_time35_counter1: evs_power[35,1] = 0
 power==0_EV_Departed_time36_counter1: evs_power[36,1] = 0
 power==0_EV_Departed_time37_counter1: evs_power[37,1] = 0
 power==0_EV_Departed_time38_counter1: evs_power[38,1] = 0
 power==0_EV_Departed_time39_counter1: evs_power[39,1] = 0
 power==0_EV_Departed_time40_counter1: evs_power[40,1] = 0
 power==0_EV_Departed_time41_counter1: evs_power[41,1] = 0
 power==0_EV_Departed_time42_counter1: evs_power[42,1] = 0
 power==0_EV_Departed_time43_counter1: evs_power[43,1] = 0
 power==0_EV_Departed_time44_counter1: evs_power[44,1] = 0
 power==0_EV_Departed_time45_counter1: evs_power[45,1] = 0
 power==0_EV_Departed_time46_counter1: evs_power[46,1] = 0
 power==0_EV_Departed_time47_counter1: evs_power[47,1] = 0
 power==0_EV_Departed_time48_counter1: evs_power[48,1] = 0
 power==0_EV_Departed_time49_counter1: evs_power[49,1] = 0
 power==0_EV_Departed_time50_counter1: evs_power[50,1] = 0
 power==0_EV_Departed_time51_counter1: evs_power[51,1] = 0
 power==0_EV_Departed_time52_counter1: evs_power[52,1] = 0
 power==0_EV_Departed_time53_counter1: evs_power[53,1] = 0
 power==0_EV_Departed_time54_counter1: evs_power[54,1] = 0
 power==0_EV_Departed_time55_counter1: evs_power[55,1] = 0
 power==0_EV_Departed_time56_counter1: evs_power[56,1] = 0
 power==0_EV_Departed_time57_counter1: evs_power[57,1] = 0
 power==0_EV_Departed_time58_counter1: evs_power[58,1] = 0
 power==0_EV_Departed_time59_counter1: evs_power[59,1] = 0
 power==0_EV_Departed_time60_counter1: evs_power[60,1] = 0
 power==0_EV_Departed_time61_counter1: evs_power[61,1] = 0
 power==0_EV_Departed_time62_counter1: evs_power[62,1] = 0
 power==0_EV_Departed_time63_counter1: evs_power[63,1] = 0
 power==0_EV_Departed_time64_counter1: evs_power[64,1] = 0
 power==0_EV_Departed_time65_counter1: evs_power[65,1] = 0
 power==0_EV_Departed_time66_counter1: evs_power[66,1] = 0
 power==0_EV_Departed_time67_counter1: evs_power[67,1] = 0
 power==0_EV_Departed_time68_counter1: evs_power[68,1] = 0
 power==0_EV_Departed_time69_counter1: evs_power[69,1] = 0
 power==0_EV_Departed_time70_counter1: evs_power[70,1] = 0
 power==0_EV_Departed_time71_counter1: evs_power[71,1] = 0
 power==0_EV_Departed_time72_counter1: evs_power[72,1] = 0
 power==0_EV_Departed_time73_counter1: evs_power[73,1] = 0
 power==0_EV_Departed_time74_counter1: evs_power[74,1] = 0
 power==0_EV_Departed_time75_counter1: evs_power[75,1] = 0
 power==0_EV_Departed_time76_counter1: evs_power[76,1] = 0
 power==0_EV_Departed_time77_counter1: evs_power[77,1] = 0
 power==0_EV_Departed_time78_counter1: evs_power[78,1] = 0
 power==0_EV_Departed_time79_counter1: evs_power[79,1] = 0
 power==0_EV_Departed_time80_counter1: evs_power[80,1] = 0
 power==0_EV_Departed_time81_counter1: evs_power[81,1] = 0
 power==0_EV_Departed_time82_counter1: evs_power[82,1] = 0
 power==0_EV_Departed_time83_counter1: evs_power[83,1] = 0
 power==0_EV_Departed_time84_counter1: evs_power[84,1] = 0
 power==0_EV_Departed_time85_counter1: evs_power[85,1] = 0
 power==0_EV_Departed_time86_counter1: evs_power[86,1] = 0
 power==0_EV_Departed_time87_counter1: evs_power[87,1] = 0
 power==0_EV_Departed_time88_counter1: evs_power[88,1] = 0
 power==0_EV_Departed_time89_counter1: evs_power[89,1] = 0
 power==0_EV_Departed_time90_counter1: evs_power[90,1] = 0
 power==0_EV_Departed_time91_counter1: evs_power[91,1] = 0
 power==0_EV_Departed_time92_counter1: evs_power[92,1] = 0
 power==0_EV_Departed_time93_counter1: evs_power[93,1] = 0
 power==0_EV_Departed_time94_counter1: evs_power[94,1] = 0
 power==0_EV_Departed_time95_counter1: evs_power[95,1] = 0
Bounds
 -22.30881440148714 <= evs_power[0,0] <= 22.30881440148714
 -22.30881440148714 <= evs_power[0,1] <= 22.30881440148714
 -22.30881440148714 <= evs_power[1,0] <= 22.30881440148714
 -22.30881440148714 <= evs_power[1,1] <= 22.30881440148714
 -22.30881440148714 <= evs_power[2,0] <= 22.30881440148714
 -22.30881440148714 <= evs_power[2,1] <= 22.30881440148714
 -22.30881440148714 <= evs_power[3,0] <= 22.30881440148714
 -22.30881440148714 <= evs_power[3,1] <= 22.30881440148714
 -22.30881440148714 <= evs_power[4,0] <= 22.30881440148714
 -22.30881440148714 <= evs_power[4,1] <= 22.30881440148714
 -22.30881440148714 <= evs_power[5,0] <= 22.30881440148714
 -22.30881440148714 <= evs_power[5,1] <= 22.30881440148714
 -22.30881440148714 <= evs_power[6,0] <= 22.30881440148714
 -22.30881440148714 <= evs_power[6,1] <= 22.30881440148714
 -22.30881440148714 <= evs_power[7,0] <= 22.30881440148714
 -22.30881440148714 <= evs_power[7,1] <= 22.30881440148714
 -22.30881440148714 <= evs_power[8,0] <= 22.30881440148714
 -22.30881440148714 <= evs_power[8,1] <= 22.30881440148714
 -22.30881440148714 <= evs_power[9,0] <= 22.30881440148714
 -22.30881440148714 <= evs_power[9,1] <= 22.30881440148714
 -22.30881440148714 <= evs_power[10,0] <= 22.30881440148714
 -22.30881440148714 <= evs_power[10,1] <= 22.30881440148714
 -22.30881440148714 <= evs_power[11,0] <= 22.30881440148714
 -22.30881440148714 <= evs_power[11,1] <= 22.30881440148714
 -22.30881440148714 <= evs_power[12,0] <= 22.30881440148714
 -22.30881440148714 <= evs_power[12,1] <= 22.30881440148714
 -22.30881440148714 <= evs_power[13,0] <= 22.30881440148714
 -22.30881440148714 <= evs_power[13,1] <= 22.30881440148714
 -22.30881440148714 <= evs_power[14,0] <= 22.30881440148714
 -22.30881440148714 <= evs_power[14,1] <= 22.30881440148714
 -22.30881440148714 <= evs_power[15,0] <= 22.30881440148714
 -22.30881440148714 <= evs_power[15,1] <= 22.30881440148714
 -22.30881440148714 <= evs_power[16,0] <= 22.30881440148714
 -22.30881440148714 <= evs_power[16,1] <= 22.30881440148714
 -22.30881440148714 <= evs_power[17,0] <= 22.30881440148714
 -22.30881440148714 <= evs_power[17,1] <= 22.30881440148714
 -22.30881440148714 <= evs_power[18,0] <= 22.30881440148714
 -22.30881440148714 <= evs_power[18,1] <= 22.30881440148714
 -22.30881440148714 <= evs_power[19,0] <= 22.30881440148714
 -22.30881440148714 <= evs_power[19,1] <= 22.30881440148714
 -22.30881440148714 <= evs_power[20,0] <= 22.30881440148714
 -22.30881440148714 <= evs_power[20,1] <= 22.30881440148714
 -22.30881440148714 <= evs_power[21,0] <= 22.30881440148714
 -22.30881440148714 <= evs_power[21,1] <= 22.30881440148714
 -22.30881440148714 <= evs_power[22,0] <= 22.30881440148714
 -22.30881440148714 <= evs_power[22,1] <= 22.30881440148714
 -22.30881440148714 <= evs_power[23,0] <= 22.30881440148714
 -22.30881440148714 <= evs_power[23,1] <= 22.30881440148714
 -22.30881440148714 <= evs_power[24,0] <= 22.30881440148714
 -22.30881440148714 <= evs_power[24,1] <= 22.30881440148714
 -22.30881440148714 <= evs_power[25,0] <= 22.30881440148714
 -22.30881440148714 <= evs_power[25,1] <= 22.30881440148714
 -22.30881440148714 <= evs_power[26,0] <= 22.30881440148714
 -22.30881440148714 <= evs_power[26,1] <= 22.30881440148714
 -22.30881440148714 <= evs_power[27,0] <= 22.30881440148714
 -22.30881440148714 <= evs_power[27,1] <= 22.30881440148714
 -22.30881440148714 <= evs_power[28,0] <= 22.30881440148714
 -22.30881440148714 <= evs_power[28,1] <= 22.30881440148714
 -22.30881440148714 <= evs_power[29,0] <= 22.30881440148714
 -22.30881440148714 <= evs_power[29,1] <= 22.30881440148714
 -22.30881440148714 <= evs_power[30,0] <= 22.30881440148714
 -22.30881440148714 <= evs_power[30,1] <= 22.30881440148714
 -22.30881440148714 <= evs_power[31,0] <= 22.30881440148714
 -22.30881440148714 <= evs_power[31,1] <= 22.30881440148714
 -22.30881440148714 <= evs_power[32,0] <= 22.30881440148714
 -22.30881440148714 <= evs_power[32,1] <= 22.30881440148714
 -22.30881440148714 <= evs_power[33,0] <= 22.30881440148714
 -22.30881440148714 <= evs_power[33,1] <= 22.30881440148714
 -22.30881440148714 <= evs_power[34,0] <= 22.30881440148714
 -22.30881440148714 <= evs_power[34,1] <= 22.30881440148714
 -22.30881440148714 <= evs_power[35,0] <= 22.30881440148714
 -22.30881440148714 <= evs_power[35,1] <= 22.30881440148714
 -22.30881440148714 <= evs_power[36,0] <= 22.30881440148714
 -22.30881440148714 <= evs_power[36,1] <= 22.30881440148714
 -22.30881440148714 <= evs_power[37,0] <= 22.30881440148714
 -22.30881440148714 <= evs_power[37,1] <= 22.30881440148714
 -22.30881440148714 <= evs_power[38,0] <= 22.30881440148714
 -22.30881440148714 <= evs_power[38,1] <= 22.30881440148714
 -22.30881440148714 <= evs_power[39,0] <= 22.30881440148714
 -22.30881440148714 <= evs_power[39,1] <= 22.30881440148714
 -22.30881440148714 <= evs_power[40,0] <= 22.30881440148714
 -22.30881440148714 <= evs_power[40,1] <= 22.30881440148714
 -22.30881440148714 <= evs_power[41,0] <= 22.30881440148714
 -22.30881440148714 <= evs_power[41,1] <= 22.30881440148714
 -22.30881440148714 <= evs_power[42,0] <= 22.30881440148714
 -22.30881440148714 <= evs_power[42,1] <= 22.30881440148714
 -22.30881440148714 <= evs_power[43,0] <= 22.30881440148714
 -22.30881440148714 <= evs_power[43,1] <= 22.30881440148714
 -22.30881440148714 <= evs_power[44,0] <= 22.30881440148714
 -22.30881440148714 <= evs_power[44,1] <= 22.30881440148714
 -22.30881440148714 <= evs_power[45,0] <= 22.30881440148714
 -22.30881440148714 <= evs_power[45,1] <= 22.30881440148714
 -22.30881440148714 <= evs_power[46,0] <= 22.30881440148714
 -22.30881440148714 <= evs_power[46,1] <= 22.30881440148714
 -22.30881440148714 <= evs_power[47,0] <= 22.30881440148714
 -22.30881440148714 <= evs_power[47,1] <= 22.30881440148714
 -22.30881440148714 <= evs_power[48,0] <= 22.30881440148714
 -22.30881440148714 <= evs_power[48,1] <= 22.30881440148714
 -22.30881440148714 <= evs_power[49,0] <= 22.30881440148714
 -22.30881440148714 <= evs_power[49,1] <= 22.30881440148714
 -22.30881440148714 <= evs_power[50,0] <= 22.30881440148714
 -22.30881440148714 <= evs_power[50,1] <= 22.30881440148714
 -22.30881440148714 <= evs_power[51,0] <= 22.30881440148714
 -22.30881440148714 <= evs_power[51,1] <= 22.30881440148714
 -22.30881440148714 <= evs_power[52,0] <= 22.30881440148714
 -22.30881440148714 <= evs_power[52,1] <= 22.30881440148714
 -22.30881440148714 <= evs_power[53,0] <= 22.30881440148714
 -22.30881440148714 <= evs_power[53,1] <= 22.30881440148714
 -22.30881440148714 <= evs_power[54,0] <= 22.30881440148714
 -22.30881440148714 <= evs_power[54,1] <= 22.30881440148714
 -22.30881440148714 <= evs_power[55,0] <= 22.30881440148714
 -22.30881440148714 <= evs_power[55,1] <= 22.30881440148714
 -22.30881440148714 <= evs_power[56,0] <= 22.30881440148714
 -22.30881440148714 <= evs_power[56,1] <= 22.30881440148714
 -22.30881440148714 <= evs_power[57,0] <= 22.30881440148714
 -22.30881440148714 <= evs_power[57,1] <= 22.30881440148714
 -22.30881440148714 <= evs_power[58,0] <= 22.30881440148714
 -22.30881440148714 <= evs_power[58,1] <= 22.30881440148714
 -22.30881440148714 <= evs_power[59,0] <= 22.30881440148714
 -22.30881440148714 <= evs_power[59,1] <= 22.30881440148714
 -22.30881440148714 <= evs_power[60,0] <= 22.30881440148714
 -22.30881440148714 <= evs_power[60,1] <= 22.30881440148714
 -22.30881440148714 <= evs_power[61,0] <= 22.30881440148714
 -22.30881440148714 <= evs_power[61,1] <= 22.30881440148714
 -22.30881440148714 <= evs_power[62,0] <= 22.30881440148714
 -22.30881440148714 <= evs_power[62,1] <= 22.30881440148714
 -22.30881440148714 <= evs_power[63,0] <= 22.30881440148714
 -22.30881440148714 <= evs_power[63,1] <= 22.30881440148714
 -22.30881440148714 <= evs_power[64,0] <= 22.30881440148714
 -22.30881440148714 <= evs_power[64,1] <= 22.30881440148714
 -22.30881440148714 <= evs_power[65,0] <= 22.30881440148714
 -22.30881440148714 <= evs_power[65,1] <= 22.30881440148714
 -22.30881440148714 <= evs_power[66,0] <= 22.30881440148714
 -22.30881440148714 <= evs_power[66,1] <= 22.30881440148714
 -22.30881440148714 <= evs_power[67,0] <= 22.30881440148714
 -22.30881440148714 <= evs_power[67,1] <= 22.30881440148714
 -22.30881440148714 <= evs_power[68,0] <= 22.30881440148714
 -22.30881440148714 <= evs_power[68,1] <= 22.30881440148714
 -22.30881440148714 <= evs_power[69,0] <= 22.30881440148714
 -22.30881440148714 <= evs_power[69,1] <= 22.30881440148714
 -22.30881440148714 <= evs_power[70,0] <= 22.30881440148714
 -22.30881440148714 <= evs_power[70,1] <= 22.30881440148714
 -22.30881440148714 <= evs_power[71,0] <= 22.30881440148714
 -22.30881440148714 <= evs_power[71,1] <= 22.30881440148714
 -22.30881440148714 <= evs_power[72,0] <= 22.30881440148714
 -22.30881440148714 <= evs_power[72,1] <= 22.30881440148714
 -22.30881440148714 <= evs_power[73,0] <= 22.30881440148714
 -22.30881440148714 <= evs_power[73,1] <= 22.30881440148714
 -22.30881440148714 <= evs_power[74,0] <= 22.30881440148714
 -22.30881440148714 <= evs_power[74,1] <= 22.30881440148714
 -22.30881440148714 <= evs_power[75,0] <= 22.30881440148714
 -22.30881440148714 <= evs_power[75,1] <= 22.30881440148714
 -22.30881440148714 <= evs_power[76,0] <= 22.30881440148714
 -22.30881440148714 <= evs_power[76,1] <= 22.30881440148714
 -22.30881440148714 <= evs_power[77,0] <= 22.30881440148714
 -22.30881440148714 <= evs_power[77,1] <= 22.30881440148714
 -22.30881440148714 <= evs_power[78,0] <= 22.30881440148714
 -22.30881440148714 <= evs_power[78,1] <= 22.30881440148714
 -22.30881440148714 <= evs_power[79,0] <= 22.30881440148714
 -22.30881440148714 <= evs_power[79,1] <= 22.30881440148714
 -22.30881440148714 <= evs_power[80,0] <= 22.30881440148714
 -22.30881440148714 <= evs_power[80,1] <= 22.30881440148714
 -22.30881440148714 <= evs_power[81,0] <= 22.30881440148714
 -22.30881440148714 <= evs_power[81,1] <= 22.30881440148714
 -22.30881440148714 <= evs_power[82,0] <= 22.30881440148714
 -22.30881440148714 <= evs_power[82,1] <= 22.30881440148714
 -22.30881440148714 <= evs_power[83,0] <= 22.30881440148714
 -22.30881440148714 <= evs_power[83,1] <= 22.30881440148714
 -22.30881440148714 <= evs_power[84,0] <= 22.30881440148714
 -22.30881440148714 <= evs_power[84,1] <= 22.30881440148714
 -22.30881440148714 <= evs_power[85,0] <= 22.30881440148714
 -22.30881440148714 <= evs_power[85,1] <= 22.30881440148714
 -22.30881440148714 <= evs_power[86,0] <= 22.30881440148714
 -22.30881440148714 <= evs_power[86,1] <= 22.30881440148714
 -22.30881440148714 <= evs_power[87,0] <= 22.30881440148714
 -22.30881440148714 <= evs_power[87,1] <= 22.30881440148714
 -22.30881440148714 <= evs_power[88,0] <= 22.30881440148714
 -22.30881440148714 <= evs_power[88,1] <= 22.30881440148714
 -22.30881440148714 <= evs_power[89,0] <= 22.30881440148714
 -22.30881440148714 <= evs_power[89,1] <= 22.30881440148714
 -22.30881440148714 <= evs_power[90,0] <= 22.30881440148714
 -22.30881440148714 <= evs_power[90,1] <= 22.30881440148714
 -22.30881440148714 <= evs_power[91,0] <= 22.30881440148714
 -22.30881440148714 <= evs_power[91,1] <= 22.30881440148714
 -22.30881440148714 <= evs_power[92,0] <= 22.30881440148714
 -22.30881440148714 <= evs_power[92,1] <= 22.30881440148714
 -22.30881440148714 <= evs_power[93,0] <= 22.30881440148714
 -22.30881440148714 <= evs_power[93,1] <= 22.30881440148714
 -22.30881440148714 <= evs_power[94,0] <= 22.30881440148714
 -22.30881440148714 <= evs_power[94,1] <= 22.30881440148714
 -22.30881440148714 <= evs_power[95,0] <= 22.30881440148714
 -22.30881440148714 <= evs_power[95,1] <= 22.30881440148714
 Constant = 1
End
